proyfinal/src/viki/013/experimentInOfficeAgust.take6.output/11dc9a24-026c-4a5e-9028-37cead6a40c4.als.dat
{'cnf.clauses': '118081',
 'cnf.totvars': '69608',
 'conflict literals': '4',
 'conflicts': '4',
 'decisions': '1859',
 'memused.mb': '16.69',
 'outcome': 'UNSAT',
 'propagations': '22625',
 'restarts': '1',
 'solver.msecs': 35,
 'task.msecs': 84}
