proyfinal/src/viki/013/experimentInOfficeAgust.take6.output/11dc9a24-026c-4a5e-9028-37cead6a40c4.als.out
Reading from standard input... Use '--help' for help.
============================[ Problem Statistics ]=============================
|                                                                             |
|  Number of variables:         69608                                         |
|  Number of clauses:          118081                                         |
|  Parse time:                   0.03 s                                       |
|                                                                             |
============================[ Search Statistics ]==============================
| Conflicts |          ORIGINAL         |          LEARNT          | Progress |
|           |    Vars  Clauses Literals |    Limit  Clauses Lit/Cl |          |
===============================================================================
===============================================================================
restarts              : 1
conflicts             : 4              (114 /sec)
decisions             : 1859           (0.00 % random) (52778 /sec)
propagations          : 22625          (642336 /sec)
conflict literals     : 4              (0.00 % deleted)
Memory used           : 16.69 MB
CPU time              : 0.035223 s

UNSATISFIABLE
